p sp 10 42
a 1 2 836
a 1 3 296
a 1 4 782
a 1 6 596
a 1 9 917
a 1 10 527
a 2 3 972
a 2 4 740
a 2 6 607
a 2 7 148
a 2 9 964
a 3 2 758
a 3 4 972
a 3 5 276
a 3 7 474
a 3 8 725
a 3 9 627
a 4 1 482
a 4 8 698
a 5 1 189
a 5 3 954
a 5 8 51
a 5 10 889
a 6 3 927
a 6 4 847
a 6 8 844
a 6 9 885
a 7 1 933
a 7 2 310
a 7 4 373
a 7 6 710
a 7 9 490
a 8 7 508
a 8 9 805
a 9 2 608
a 9 3 627
a 9 5 992
a 9 6 118
a 10 4 184
a 10 6 382
a 10 7 579
a 10 9 79
